202 10
2 2 2 2 2 2 2 2 2 2
0  0 0 0 0 0 0 0 0 0 0  20 2 12 22 32 42 52 62 72 82 92 102 112 122 132 142 152 162 172 182 192
9  0 0 0 0 0 0 1 0 0 0  1 3
81  0 1 0 0 0 0 0 0 0 0  1 4
55  0 0 0 0 1 0 0 0 0 0  1 5
40  0 0 1 0 0 0 0 0 0 0  1 6
32  0 0 0 0 0 0 0 0 1 0  1 7
37  0 0 0 1 0 0 0 0 0 0  1 8
6  1 0 0 0 0 0 0 0 0 0  1 9
19  0 0 0 0 0 1 0 0 0 0  1 10
81  0 0 0 0 0 0 0 0 0 1  1 11
40  0 0 0 0 0 0 0 1 0 0  1 202
21  0 0 0 0 0 0 0 1 0 0  1 13
70  0 0 1 0 0 0 0 0 0 0  1 14
65  0 0 0 0 0 0 0 0 0 1  1 15
64  0 0 0 0 1 0 0 0 0 0  1 16
46  0 1 0 0 0 0 0 0 0 0  1 17
65  0 0 0 0 0 1 0 0 0 0  1 18
25  0 0 0 0 0 0 0 0 1 0  1 19
77  1 0 0 0 0 0 0 0 0 0  1 20
55  0 0 0 1 0 0 0 0 0 0  1 21
15  0 0 0 0 0 0 1 0 0 0  1 202
85  0 0 1 0 0 0 0 0 0 0  1 23
37  0 0 0 0 0 1 0 0 0 0  1 24
40  1 0 0 0 0 0 0 0 0 0  1 25
24  0 0 0 1 0 0 0 0 0 0  1 26
44  0 1 0 0 0 0 0 0 0 0  1 27
83  0 0 0 0 0 0 1 0 0 0  1 28
89  0 0 0 0 1 0 0 0 0 0  1 29
31  0 0 0 0 0 0 0 0 1 0  1 30
84  0 0 0 0 0 0 0 1 0 0  1 31
29  0 0 0 0 0 0 0 0 0 1  1 202
80  0 0 0 0 1 0 0 0 0 0  1 33
77  0 0 0 0 0 0 1 0 0 0  1 34
56  0 0 0 0 0 0 0 1 0 0  1 35
8  1 0 0 0 0 0 0 0 0 0  1 36
30  0 0 1 0 0 0 0 0 0 0  1 37
59  0 0 0 0 0 1 0 0 0 0  1 38
38  0 0 0 1 0 0 0 0 0 0  1 39
80  0 1 0 0 0 0 0 0 0 0  1 40
41  0 0 0 0 0 0 0 0 0 1  1 41
97  0 0 0 0 0 0 0 0 1 0  1 202
91  1 0 0 0 0 0 0 0 0 0  1 43
40  0 0 0 0 0 0 1 0 0 0  1 44
88  0 0 0 0 1 0 0 0 0 0  1 45
17  0 1 0 0 0 0 0 0 0 0  1 46
71  0 0 1 0 0 0 0 0 0 0  1 47
50  0 0 0 1 0 0 0 0 0 0  1 48
59  0 0 0 0 0 0 0 0 0 1  1 49
80  0 0 0 0 0 0 0 0 1 0  1 50
56  0 0 0 0 0 1 0 0 0 0  1 51
7  0 0 0 0 0 0 0 1 0 0  1 202
8  0 0 1 0 0 0 0 0 0 0  1 53
9  0 0 0 0 0 0 1 0 0 0  1 54
58  0 0 0 1 0 0 0 0 0 0  1 55
77  0 0 0 0 0 1 0 0 0 0  1 56
29  0 1 0 0 0 0 0 0 0 0  1 57
96  0 0 0 0 0 0 0 0 1 0  1 58
45  1 0 0 0 0 0 0 0 0 0  1 59
10  0 0 0 0 0 0 0 0 0 1  1 60
54  0 0 0 0 1 0 0 0 0 0  1 61
36  0 0 0 0 0 0 0 1 0 0  1 202
70  0 0 0 0 1 0 0 0 0 0  1 63
92  0 0 0 1 0 0 0 0 0 0  1 64
98  0 1 0 0 0 0 0 0 0 0  1 65
87  0 0 0 0 0 1 0 0 0 0  1 66
99  0 0 0 0 0 0 1 0 0 0  1 67
27  0 0 0 0 0 0 0 1 0 0  1 68
86  0 0 0 0 0 0 0 0 1 0  1 69
96  0 0 0 0 0 0 0 0 0 1  1 70
28  1 0 0 0 0 0 0 0 0 0  1 71
73  0 0 1 0 0 0 0 0 0 0  1 202
95  0 1 0 0 0 0 0 0 0 0  1 73
92  0 0 0 0 0 0 0 1 0 0  1 74
85  0 0 0 1 0 0 0 0 0 0  1 75
52  0 0 0 0 1 0 0 0 0 0  1 76
81  0 0 0 0 0 0 1 0 0 0  1 77
32  0 0 0 0 0 0 0 0 0 1  1 78
39  0 0 0 0 0 0 0 0 1 0  1 79
59  1 0 0 0 0 0 0 0 0 0  1 80
41  0 0 1 0 0 0 0 0 0 0  1 81
56  0 0 0 0 0 1 0 0 0 0  1 202
60  0 0 0 1 0 0 0 0 0 0  1 83
45  0 0 0 0 0 0 0 0 1 0  1 84
88  1 0 0 0 0 0 0 0 0 0  1 85
12  0 0 1 0 0 0 0 0 0 0  1 86
7  0 1 0 0 0 0 0 0 0 0  1 87
22  0 0 0 0 0 1 0 0 0 0  1 88
93  0 0 0 0 1 0 0 0 0 0  1 89
49  0 0 0 0 0 0 0 0 0 1  1 90
69  0 0 0 0 0 0 0 1 0 0  1 91
27  0 0 0 0 0 0 1 0 0 0  1 202
21  1 0 0 0 0 0 0 0 0 0  1 93
61  0 0 1 0 0 0 0 0 0 0  1 94
68  0 0 0 1 0 0 0 0 0 0  1 95
26  0 0 0 0 0 1 0 0 0 0  1 96
82  0 0 0 0 0 0 1 0 0 0  1 97
71  0 0 0 0 0 0 0 0 0 1  1 98
44  0 0 0 0 0 0 0 0 1 0  1 99
99  0 0 0 0 1 0 0 0 0 0  1 100
33  0 0 0 0 0 0 0 1 0 0  1 101
84  0 1 0 0 0 0 0 0 0 0  1 202
9  0 0 0 0 0 0 1 0 0 0  1 103
81  0 1 0 0 0 0 0 0 0 0  1 104
55  0 0 0 0 1 0 0 0 0 0  1 105
40  0 0 1 0 0 0 0 0 0 0  1 106
32  0 0 0 0 0 0 0 0 1 0  1 107
37  0 0 0 1 0 0 0 0 0 0  1 108
6  1 0 0 0 0 0 0 0 0 0  1 109
19  0 0 0 0 0 1 0 0 0 0  1 110
81  0 0 0 0 0 0 0 0 0 1  1 111
40  0 0 0 0 0 0 0 1 0 0  1 202
21  0 0 0 0 0 0 0 1 0 0  1 113
70  0 0 1 0 0 0 0 0 0 0  1 114
65  0 0 0 0 0 0 0 0 0 1  1 115
64  0 0 0 0 1 0 0 0 0 0  1 116
46  0 1 0 0 0 0 0 0 0 0  1 117
65  0 0 0 0 0 1 0 0 0 0  1 118
25  0 0 0 0 0 0 0 0 1 0  1 119
77  1 0 0 0 0 0 0 0 0 0  1 120
55  0 0 0 1 0 0 0 0 0 0  1 121
15  0 0 0 0 0 0 1 0 0 0  1 202
85  0 0 1 0 0 0 0 0 0 0  1 123
37  0 0 0 0 0 1 0 0 0 0  1 124
40  1 0 0 0 0 0 0 0 0 0  1 125
24  0 0 0 1 0 0 0 0 0 0  1 126
44  0 1 0 0 0 0 0 0 0 0  1 127
83  0 0 0 0 0 0 1 0 0 0  1 128
89  0 0 0 0 1 0 0 0 0 0  1 129
31  0 0 0 0 0 0 0 0 1 0  1 130
84  0 0 0 0 0 0 0 1 0 0  1 131
29  0 0 0 0 0 0 0 0 0 1  1 202
80  0 0 0 0 1 0 0 0 0 0  1 133
77  0 0 0 0 0 0 1 0 0 0  1 134
56  0 0 0 0 0 0 0 1 0 0  1 135
8  1 0 0 0 0 0 0 0 0 0  1 136
30  0 0 1 0 0 0 0 0 0 0  1 137
59  0 0 0 0 0 1 0 0 0 0  1 138
38  0 0 0 1 0 0 0 0 0 0  1 139
80  0 1 0 0 0 0 0 0 0 0  1 140
41  0 0 0 0 0 0 0 0 0 1  1 141
97  0 0 0 0 0 0 0 0 1 0  1 202
91  1 0 0 0 0 0 0 0 0 0  1 143
40  0 0 0 0 0 0 1 0 0 0  1 144
88  0 0 0 0 1 0 0 0 0 0  1 145
17  0 1 0 0 0 0 0 0 0 0  1 146
71  0 0 1 0 0 0 0 0 0 0  1 147
50  0 0 0 1 0 0 0 0 0 0  1 148
59  0 0 0 0 0 0 0 0 0 1  1 149
80  0 0 0 0 0 0 0 0 1 0  1 150
56  0 0 0 0 0 1 0 0 0 0  1 151
7  0 0 0 0 0 0 0 1 0 0  1 202
8  0 0 1 0 0 0 0 0 0 0  1 153
9  0 0 0 0 0 0 1 0 0 0  1 154
58  0 0 0 1 0 0 0 0 0 0  1 155
77  0 0 0 0 0 1 0 0 0 0  1 156
29  0 1 0 0 0 0 0 0 0 0  1 157
96  0 0 0 0 0 0 0 0 1 0  1 158
45  1 0 0 0 0 0 0 0 0 0  1 159
10  0 0 0 0 0 0 0 0 0 1  1 160
54  0 0 0 0 1 0 0 0 0 0  1 161
36  0 0 0 0 0 0 0 1 0 0  1 202
70  0 0 0 0 1 0 0 0 0 0  1 163
92  0 0 0 1 0 0 0 0 0 0  1 164
98  0 1 0 0 0 0 0 0 0 0  1 165
87  0 0 0 0 0 1 0 0 0 0  1 166
99  0 0 0 0 0 0 1 0 0 0  1 167
27  0 0 0 0 0 0 0 1 0 0  1 168
86  0 0 0 0 0 0 0 0 1 0  1 169
96  0 0 0 0 0 0 0 0 0 1  1 170
28  1 0 0 0 0 0 0 0 0 0  1 171
73  0 0 1 0 0 0 0 0 0 0  1 202
95  0 1 0 0 0 0 0 0 0 0  1 173
92  0 0 0 0 0 0 0 1 0 0  1 174
85  0 0 0 1 0 0 0 0 0 0  1 175
52  0 0 0 0 1 0 0 0 0 0  1 176
81  0 0 0 0 0 0 1 0 0 0  1 177
32  0 0 0 0 0 0 0 0 0 1  1 178
39  0 0 0 0 0 0 0 0 1 0  1 179
59  1 0 0 0 0 0 0 0 0 0  1 180
41  0 0 1 0 0 0 0 0 0 0  1 181
56  0 0 0 0 0 1 0 0 0 0  1 202
60  0 0 0 1 0 0 0 0 0 0  1 183
45  0 0 0 0 0 0 0 0 1 0  1 184
88  1 0 0 0 0 0 0 0 0 0  1 185
12  0 0 1 0 0 0 0 0 0 0  1 186
7  0 1 0 0 0 0 0 0 0 0  1 187
22  0 0 0 0 0 1 0 0 0 0  1 188
93  0 0 0 0 1 0 0 0 0 0  1 189
49  0 0 0 0 0 0 0 0 0 1  1 190
69  0 0 0 0 0 0 0 1 0 0  1 191
27  0 0 0 0 0 0 1 0 0 0  1 202
21  1 0 0 0 0 0 0 0 0 0  1 193
61  0 0 1 0 0 0 0 0 0 0  1 194
68  0 0 0 1 0 0 0 0 0 0  1 195
26  0 0 0 0 0 1 0 0 0 0  1 196
82  0 0 0 0 0 0 1 0 0 0  1 197
71  0 0 0 0 0 0 0 0 0 1  1 198
44  0 0 0 0 0 0 0 0 1 0  1 199
99  0 0 0 0 1 0 0 0 0 0  1 200
33  0 0 0 0 0 0 0 1 0 0  1 201
84  0 1 0 0 0 0 0 0 0 0  1 202
0  0 0 0 0 0 0 0 0 0 0  0
